HUN,8,6,983
1,16,2,5,0,8,4,11,5,14,3,20
2,11,0,5,1,25,4,29,5,9,3,29
2,29,0,28,1,16,3,23,5,16,4,19
1,14,0,28,2,14,4,5,3,12,5,6
1,18,2,15,0,4,5,24,4,6,3,17
1,30,0,30,2,6,3,27,4,27,5,29
0,19,1,6,2,3,5,19,4,3,3,22
0,11,1,25,2,28,3,24,5,5,4,28
